p cnf 76 247
-5 -3 0
-5 4 0
3 -4 5 0
7 5 0
7 -6 0
-5 6 -7 0
2 -7 -8 0
-2 7 -8 0
2 7 8 0
-2 -7 8 0
9 1 0
9 8 0
-1 -8 -9 0
-1 3 -10 0
1 -3 -10 0
-1 -3 10 0
1 3 10 0
-10 -3 -11 0
10 3 -11 0
-10 3 11 0
10 -3 11 0
-12 -11 0
-12 5 0
11 -5 12 0
-13 -9 0
-13 12 0
9 -12 13 0
6 -15 -16 0
-6 15 -16 0
6 15 16 0
-6 -15 16 0
18 -5 0
18 17 0
5 -17 -18 0
-19 -16 0
-19 18 0
16 -18 19 0
-20 -14 0
-20 19 0
14 -19 20 0
-21 -8 0
-21 -20 0
8 20 21 0
22 14 -23 0
-22 -14 -23 0
22 -14 23 0
-22 14 23 0
24 -23 0
24 22 0
23 -22 -24 0
21 24 -25 0
-21 -24 -25 0
21 -24 25 0
-21 24 25 0
13 25 -26 0
-13 -25 -26 0
13 -25 26 0
-13 25 26 0
-22 15 -27 0
22 -15 -27 0
-22 -15 27 0
22 15 27 0
-28 3 0
-28 2 0
-3 -2 28 0
28 -6 -29 0
-28 6 -29 0
28 6 29 0
-28 -6 29 0
-30 29 0
-30 18 0
-29 -18 30 0
27 30 -31 0
-27 -30 -31 0
27 -30 31 0
-27 30 31 0
28 -1 -32 0
-28 1 -32 0
28 1 32 0
-28 -1 32 0
-23 -14 -33 0
23 14 -33 0
-23 14 33 0
23 -14 33 0
-35 -6 0
-35 -34 0
6 34 35 0
33 -35 -36 0
-33 35 -36 0
33 35 36 0
-33 -35 36 0
37 -32 0
37 36 0
32 -36 -37 0
-38 -31 0
-38 37 0
31 -37 38 0
40 23 0
40 -39 0
-23 39 -40 0
-42 -41 0
-42 -5 0
41 5 42 0
34 -42 -43 0
-34 42 -43 0
34 42 43 0
-34 -42 43 0
44 20 0
44 -43 0
-20 43 -44 0
45 -40 0
45 44 0
40 -44 -45 0
46 -11 0
46 28 0
11 -28 -46 0
-46 19 -47 0
46 -19 -47 0
-46 -19 47 0
46 19 47 0
-48 14 0
-48 2 0
-14 -2 48 0
49 48 0
49 -39 0
-48 39 -49 0
-50 -47 0
-50 -49 0
47 49 50 0
51 45 0
51 50 0
-45 -50 -51 0
52 -39 0
52 -3 0
39 3 -52 0
53 -52 0
53 -11 0
52 11 -53 0
-28 34 -54 0
28 -34 -54 0
-28 -34 54 0
28 34 54 0
-3 54 -55 0
3 -54 -55 0
-3 -54 55 0
3 54 55 0
56 55 0
56 -41 0
-55 41 -56 0
57 -53 0
57 -56 0
53 56 -57 0
58 39 0
58 17 0
-39 -17 -58 0
-20 59 -60 0
20 -59 -60 0
-20 -59 60 0
20 59 60 0
62 61 0
62 8 0
-61 -8 -62 0
63 60 0
63 62 0
-60 -62 -63 0
-64 58 0
-64 -63 0
-58 63 64 0
65 23 0
65 -39 0
-23 39 -65 0
66 65 0
66 -54 0
-65 54 -66 0
67 -54 0
67 -55 0
54 55 -67 0
-66 -67 -68 0
66 67 -68 0
-66 67 68 0
66 -67 68 0
-68 -69 0
68 -69 0
70 -16 0
70 -22 0
16 22 -70 0
71 -69 0
71 -70 0
69 70 -71 0
-72 -64 0
-72 71 0
64 -71 72 0
-73 57 0
-73 -72 0
-57 72 73 0
74 51 0
74 -73 0
-51 73 -74 0
38 -74 -75 0
-38 74 -75 0
38 74 75 0
-38 -74 75 0
-76 26 0
-76 75 0
-26 -75 76 0
34 -54 -43 -24 0
12 16 0
-24 56 71 0
-40 68 61 -14 0
-67 23 0
1 27 0
-36 56 9 0
-50 -40 -32 0
-8 70 69 0
42 62 -14 -51 17 0
35 -19 -6 0
-53 22 -63 38 -11 0
56 3 0
-59 73 0
75 11 3 48 20 0
39 -8 0
-75 -56 72 -47 -48 0
-51 12 10 -32 -44 0
-70 20 -3 0
-24 53 31 0
-7 -34 -28 6 16 19 0
1 -10 5 -35 -33 18 0
-59 62 14 2 -75 50 0
-8 -65 1 -70 -42 0
-65 -17 2 0
-43 36 -37 -73 0
75 -11 0
24 58 0
-32 46 7 0
47 -8 -34 49 0
49 -70 -30 -46 7 62 0
16 -62 -42 -44 0
-47 -65 73 -8 -20 2 0
37 -22 62 35 0
25 -68 -70 -7 -29 -61 0
-2 -16 0
48 -60 0
-43 1 -9 -49 0
-65 19 -20 -64 0
-61 -38 -76 73 46 0
-18 -31 -67 -71 0
76 0
